experiments/cvc4_benchmarks/expl/isaplanner/goal59.smt2.log
11:46:35 [WARN] Collecting statistics
11:46:35 [WARN]  ex is: zero
11:46:35 [WARN]  ex is: (succ zero)
11:46:35 [WARN]  ex is: (succ (succ zero))
11:46:35 [WARN]  ex is: nil
11:46:35 [WARN]  ex is: (cons autovar_Nat_0 nil)
11:46:35 [WARN]  ex is: (cons autovar_Nat_1 (cons autovar_Nat_0 nil))
11:46:35 [WARN]  ex is: (mkpair autovar_Nat_0 autovar_Nat_1)
11:46:35 [WARN]  ex is: znil
11:46:35 [WARN]  ex is: (zcons autovar_Pair_0 znil)
11:46:35 [WARN]  ex is: (zcons autovar_Pair_1 (zcons autovar_Pair_0 znil))
11:46:35 [WARN] Proof mode: false
11:46:35 [WARN]  ex is: zero
11:46:35 [WARN]  ex is: (succ zero)
11:46:35 [WARN]  ex is: (succ (succ zero))
11:46:35 [WARN]  ex is: nil
11:46:35 [WARN]  ex is: (cons autovar_Nat_0 nil)
11:46:35 [WARN]  ex is: (cons autovar_Nat_1 (cons autovar_Nat_0 nil))
11:46:35 [WARN]  ex is: (mkpair autovar_Nat_0 autovar_Nat_1)
11:46:35 [WARN]  ex is: znil
11:46:35 [WARN]  ex is: (zcons autovar_Pair_0 znil)
11:46:35 [WARN]  ex is: (zcons autovar_Pair_1 (zcons autovar_Pair_0 znil))
11:46:35 [WARN] Proof mode: false
11:46:35 [WARN] proved: (leq zero ?ts_ph_Nat_0) => true
11:46:51 [WARN] proved: (drop ?ts_ph_Nat_0 (cons zero ?ts_ph_Lst_1)) => (drop ?ts_ph_Nat_0 (cons ?ts_ph_Nat_0 ?ts_ph_Lst_1))
11:46:51 [WARN] proved: (drop ?ts_ph_Nat_0 (cons ?ts_ph_Nat_0 ?ts_ph_Lst_1)) => (drop ?ts_ph_Nat_0 (cons zero ?ts_ph_Lst_1))
11:46:51 [WARN] proved: (leq (succ zero) (succ ?ts_ph_Nat_0)) => true
11:46:51 [WARN] proved: (zdrop (succ ?ts_ph_Nat_1) ?ts_ph_ZLst_0) => (zdrop (succ zero) (zdrop ?ts_ph_Nat_1 ?ts_ph_ZLst_0))
11:46:51 [WARN] proved: (zdrop (succ zero) (zdrop ?ts_ph_Nat_1 ?ts_ph_ZLst_0)) => (zdrop (succ ?ts_ph_Nat_1) ?ts_ph_ZLst_0)
11:46:51 [WARN] proved: (zdrop ?ts_ph_Nat_1 (zdrop ?ts_ph_Nat_0 ?ts_ph_ZLst_1)) => (zdrop ?ts_ph_Nat_0 (zdrop ?ts_ph_Nat_1 ?ts_ph_ZLst_1))
11:46:51 [WARN] proved: (zdrop ?ts_ph_Nat_0 (zdrop ?ts_ph_Nat_1 ?ts_ph_ZLst_1)) => (zdrop ?ts_ph_Nat_1 (zdrop ?ts_ph_Nat_0 ?ts_ph_ZLst_1))
11:46:51 [WARN] proved: (drop (succ zero) (drop ?ts_ph_Nat_0 ?ts_ph_Lst_1)) => (drop (succ ?ts_ph_Nat_0) ?ts_ph_Lst_1)
11:46:51 [WARN] proved: (drop (succ ?ts_ph_Nat_0) ?ts_ph_Lst_1) => (drop (succ zero) (drop ?ts_ph_Nat_0 ?ts_ph_Lst_1))
11:46:51 [WARN] proved: (drop ?ts_ph_Nat_0 (drop ?ts_ph_Nat_1 ?ts_ph_Lst_1)) => (drop ?ts_ph_Nat_1 (drop ?ts_ph_Nat_0 ?ts_ph_Lst_1))
11:46:51 [WARN] proved: (drop ?ts_ph_Nat_1 (drop ?ts_ph_Nat_0 ?ts_ph_Lst_1)) => (drop ?ts_ph_Nat_0 (drop ?ts_ph_Nat_1 ?ts_ph_Lst_1))
11:46:52 [WARN] proved: (zdrop ?ts_ph_Nat_1 (zip ?ts_ph_Lst_0 ?ts_ph_Lst_0)) => (zip (drop ?ts_ph_Nat_1 ?ts_ph_Lst_0) (drop ?ts_ph_Nat_1 ?ts_ph_Lst_0))
11:46:52 [WARN] proved: (zip (drop ?ts_ph_Nat_1 ?ts_ph_Lst_0) (drop ?ts_ph_Nat_1 ?ts_ph_Lst_0)) => (zdrop ?ts_ph_Nat_1 (zip ?ts_ph_Lst_0 ?ts_ph_Lst_0))
